
 102   30
  10   10   10   10   10   10   10   10   10   10   10   10   10   10   10   10   10   10   10   10   10   10   10   10   10   10   10   10   10   10

   0   0   0   0   0   0   0   0   0   0   0   0   0   0   0   0   0   0   0   0   0   0   0   0   0   0   0   0   0   0   0  23 2 3 4 5 6 7 8 10 12 13 14 15 16 18 19 21 22 23 28 29 31 32 40 
   8   0   0   0   0   0   0   0   0   0   1   1   0   0   0   0   0   2   2   0   0   0   0   0   0   0   0   0   0   0   0  11 73 59 53 46 39 36 30 26 24 17 11 
   4   0   1   0   1   0   0   0   0   2   0   8   0   0   0   0   0   0   5   1   1   0   0   0   0   0   0   0   0   0   0  13 74 73 53 51 50 49 47 46 41 37 20 17 11 
   1   0   0   0   0   0   2   0   0   0   0   0   1   1   0   0   0   0   0   0   0   0   0   0   0   0   0   1   0   0   0  11 58 56 53 51 48 46 44 41 33 25 9 
  10   0   2   0   0   0   6   0   0   0   0   0   0   0   0   0   0   0   0   0   0   0   0   0   0   0   0   0   0   0   0  13 73 72 62 58 54 52 50 46 41 39 38 37 27 
   5   0   5   1   5   5   0   0   0   0   0   0   0   0   0   0   0   0   0   0   0   0   0   0   0   1   0   0   0   0   0  12 96 73 71 61 49 47 45 44 42 38 34 24 
   5   0   0   0   3   0   0   0   0   0   0   0   0   0   0   0   3   0   0   0   0   0   0   1   2   0   0   0   1   0   0  18 100 99 97 96 95 74 72 61 59 58 53 51 50 49 48 42 37 33 
   7   0   0   0   0   0   0   0   0   0   5   0   0   0   0   0   2   0   0   0   0   0   4   0   0   0   0   0   0   0   2  16 96 93 91 74 73 72 64 61 58 51 50 48 46 41 37 35 
   4   0   0   0   0   0   0   0   0   0   0   0   0   3   0   1   0  10   0   0   0   0   0   0   0   0   0   0   0   0   0  14 99 98 97 72 70 69 59 54 52 50 42 39 38 37 
  10   0   7   0   0   6   0   0   0   0   0   0   0   0   0   0   0   0   0   0   7   0   0   0   0   6   0   0  10   1   0  19 98 97 96 95 94 93 87 72 71 68 67 65 62 60 58 57 49 43 42 
   7   0   0   0   0   0   0   0   0   0   9   0   0   0   0   0   0   4   0   0   4   0   0   0   0   0   0   0   0   0   0  18 101 100 99 97 96 94 89 87 86 83 68 67 66 64 62 61 43 38 
   5   0   0   0   0   0   0   0   0   0   0   0   5   0   1   0   0   0   0   0   0   0   0   0   0   0   0   0   0   0   0  14 101 99 97 93 72 68 67 60 51 50 49 47 42 39 
   4   0   0   0   9   0   0   0   0   0   0   0   0   0   0   0   0  10   0   0   0   0   0   0   5   0   0   0   0   9   0  13 100 99 95 90 73 70 69 68 66 57 49 42 36 
   8   0   0   0   0   5   0   1   0   0   0   0   7   0   0   0   0   0   0   0   0   0   0   0   0   0   0   0   0   0   6  12 101 99 95 93 73 70 62 61 53 50 42 37 
   3   0   8   0   0   4   0   0   0   6   0   0   0   0   6   0   0   0   0   0   0   0   0   0   0   0   0   0   0   0   0   9 99 96 87 64 62 50 44 38 37 
   2   0   0   0   0   0   0   0   0   0   0   0   0   0   3   0   0   0   0   0   0   0   0   5   0   0   0   0   0   5   0  16 100 98 96 94 93 92 91 88 72 70 65 64 58 53 50 41 
   5   1   0   0   0   0   0   0   1   0   0   0   3   0   0   0   0   4   0   0   0   1   0   0   0   0   0   0   0   0   0  20 97 96 95 91 89 88 83 72 70 69 66 65 64 63 62 58 57 55 52 48 
   9   0   0   0   0   0   0   0   8   0   0   0   0   0   0   7   0   0   0  10   0   0   0   6   0   0   1   0   0   8   9  14 100 97 94 93 85 73 70 69 62 61 57 50 42 39 
   3   0   0   0   0   0   6   0   0   0   8   0   0   6   0   0   0   0   6   0   0   7   0   0   0   0   0   0   0   0   5  12 101 98 97 96 89 84 68 65 64 58 51 33 
  10   0   0   0   0   0   0   8   0   0   0   0   0   0   0   0   0   0   0   0   0   5   0   0   0   0   0   0   0   8   0  11 98 97 96 87 71 67 61 58 54 42 38 
   3   0   0   0   0   0   0   0   0   0   0   0   0   0   0   0   0   0   0   0   0   0   0   0   0   0   0   0   0   0   0   9 99 91 89 70 64 58 51 38 37 
   9   0   0   0   0   0   0   0   0   0   0   0   0   0   0   0   0   0   0   0   0   0   0   0   0   0   4   0   7   5   0  24 100 99 97 96 95 94 93 91 90 89 88 85 84 83 72 71 67 65 64 63 59 58 57 55 
  10   0   9   0   0   0  10   0   0   0   0   8  10   0   0   0   0   0   0   0   0   0   0   0   0   0   0   0   0   0   8  16 99 97 95 94 93 86 85 73 69 68 66 65 59 55 48 42 
  10   0   5   0   6   0   6   0   0   0   0   0   0   0   0   0   0   8   0   0   0   7   0   0   4   5  10   0   6   0   6  13 99 98 95 93 92 91 90 89 74 58 51 50 37 
   6   0   6   0   0   0   0   0   0   0   0   0   0   0   0   0   0  10   0   0   0   0   0   0   0   0   0   0   0   0   0  17 98 95 94 93 92 90 89 85 83 74 70 64 63 59 55 50 39 
  10   0   0   0   0   0   0   0   0   0   0   0   0   0   8   0   7   0   0   0   0   6   0   0   0   0   5   0   0   4   0  12 98 95 93 90 85 84 66 57 56 55 47 42 
   7   0   0   0   0   0   0   0   0   0   0   0   0   0   0   0   0   0   0   0   0   0   0   0   0   0   0   0   0   0   5  15 100 98 96 95 94 90 85 84 81 71 70 65 61 59 42 
   3   0   0   8   0   0   0   0   0   0   0   0   0   6   0   0   0   0   0   0   0   0   0   0   0   0   0   0   0   0   6  18 97 96 94 93 92 90 89 88 87 85 83 78 69 66 63 61 58 55 
   3   0   0   0   0   0   0   7   0   0   0   0   0   0   0   0   0   0   0   0  10  10   2   8   0   0   4   0   0   0   0  16 100 98 95 93 91 90 89 87 85 83 78 72 68 66 58 55 
  10   0   0   8   4   0   0   0   0   0   0   0   0  10   0   7   0   6   0   0   0   0   0   0   0   0   0   0   3   0   0  10 100 97 89 88 83 74 65 64 63 43 
   8   6   0   0   0   0   0   0   0   0   0   0   5   7   0   0   0   0   0   0   0   0   0   0   6   7   8   0   0   0   0  13 96 95 93 91 83 82 77 71 67 64 56 55 50 
   6   0   0   0   0   0   0   0   0   0   0   0   7   0   0   0   0   0   0   0   0   0   0   0   0   0   5   0   0   0   0  18 99 98 96 90 89 88 87 86 85 82 81 80 79 78 72 67 63 61 
   2   0   0   0   0   0  10   0   0   6   0   0   9   0   0   0   0   0   0   0   0   0   0   0   0   0   0   0   0   0   0  14 94 93 91 90 86 85 83 82 78 73 63 62 57 55 
   2   0   0   0   0   3   0   0   8   0   0   0   0   0   0   0   6   0   0   0   0   0   2   5   0   0   8   0   0   0   0  13 95 93 91 90 88 85 82 80 69 65 63 57 55 
   7   0   0   0   0   0   0   0   5   0   0   0   0   9   0   0   0   0   0   0   0   0   6   0   0   0   0   0   6   0   0  12 97 92 87 84 83 80 77 71 65 63 55 52 
   9   0   6   0   0   0   0   0   0   0   9   0   0   0   0   6   0   0   0   0   0   0   0   0   0   0   0   0   0   0   0  14 98 96 94 93 91 87 85 84 82 77 67 64 61 55 
   8   0   0   6   0  10   0   0   0   0   0   0   0   0   0   5   0   0   0   0   0   3   0   0   0   0   0   0   0   0   0  11 94 86 83 82 80 68 67 66 65 63 55 
   7   0   0   0   5   0   4   0   0   0   0   7   0   0   0   0   0   0   0   4   0   0   0   6  10   0   0   0   6   0   0  10 95 93 90 85 84 80 65 63 57 55 
   5   0   0   0   0   0   0   0   0   0   0   0   0   0   0   0   0   0   0   0   0   0   0   9   0   0   0   0   0   0   5  14 96 91 88 87 84 82 81 80 79 77 76 75 71 65 
   3   0   0   0   7   0   0   0   5   0   0   0   6   0   0   0   0   0   0   0   7   0   0   0   0   0   0   5   0   0   0  13 98 95 90 89 88 87 83 82 80 76 66 64 63 
   4   0   5   0   0   0   0   0   0   8   0   0   0   0   9   0   0   0   0   0   0   0   5   0   0   0   5   0   0   0   0  13 99 97 89 87 86 83 82 81 80 76 75 69 66 
   4   0   0   0   0   0   0   0   0   0   9   0   0   0   0   0   0   0   0   0   0   0   0   0   0   0   0   0   0   0   4  11 91 89 88 83 82 80 79 77 76 64 63 
   5   0   0   0   0   0   0   5   0   0   5   0   0   5   0   0   0   0   0   0   0   0   0   0   0  10   0   0   0   0   0   8 91 85 82 80 78 77 69 55 
   3  10   0   0   0   0   6   0   0   0   0   6   0   0   0   0   0   0  10   0   0   0   8   0   0   0   0   0   5   0   0   9 100 97 91 90 89 83 79 76 75 
  10   0   5   0   0  10   0   0   7   0   0   0   0   0   0   0   0   0   0   0   0   0   0   0   0   0   0   0   0   0   0   8 99 94 84 83 82 77 75 64 
   7   0   6   0   0   0   0   0   0   0   3   4   0   4   0   0   0   0   0   0   0   0   0   0   0   0   0   0   6   0   4   8 95 89 88 83 79 78 76 75 
   9   0   0   0   5   0   0   8   0   0   0   0   0   6   0   0   0   0   0   0   0   0   7   0   0   0   0   0   6   0   8   7 94 89 86 83 80 75 70 
   5   7   0   0   8   0   0   0   0   0   0   0   0   0   3   0   0   0   0   0   0   9   0   5   0   0   0   6   7   0   0   7 98 90 82 79 77 76 75 
   7   3   0   0   0   0   0   0   0  10   0   0   0   0   9   0   0   0   0   6   0   0  10   0   0   0   0   0   0   8   0   6 92 89 84 81 77 63 
  10   0   0   0   0   0   0   0   0   0   0   0   0   0   0   6   0   0   5   0   0   0   0   0   0   9   0   0   6   0   0   5 84 81 79 76 75 
   7   0   0   0   0   0   0   0   0   7   0   0   0   0   0   0   7   0   0   0   0   0   0   0   5   0   0   0   0   0   0   5 88 87 85 78 75 
   3   0   0   0   0   0   0   0   0   0   0   4   0   0   0   0   0   0   0   0   0   0   0   0   0   0   7   0   0   0   0   5 85 82 78 76 75 
   6   5   0   0   7   0   0   5   0   6   0   0   0   0   0   0   0   0   0   0   0   0   0   0   0   0   0   0   0   0   0   4 90 85 78 63 
   1   0   0   0   0   0   0   0   0   6   0   0   0   0   0   7   0   0   0   0   0   6   7   0   0   0   7   0   0   0   4   4 81 79 77 63 
   1   0   0   0   0   0   0   0   0   0   5   0   0   8   0   0   0   0   0   0   0   0   0   0   0   0   5   0   0   0   0   4 81 79 76 75 
   6   0   0   0   0   0   0   0   0   0   0   0   0   0   0   0   0   0   0   0   0   0   0   0   0   0   0   0   0   0   0   3 80 78 63 
   9   0   9   5   0   0   0   0   0   0   0   0   4   0   0   0   3   0   0   0   0   0   0   0   0   0   0   0   0   0   0   3 92 77 76 
   1   0   0   0   0   0   0   0   0   0   0   5   0   0   8   0   0   0   0   0   0   0   0   0   0   0   0   0   0   0   7   3 86 80 77 
   1   0   0   8   8   0   0   0   0   5   4   0   0   7   0   0   0   0   0   0   0   0   0   0   5   0   0   0   0   0   0   3 87 78 75 
   4   4   0   7   0   0   0   0   0   0   0   0   0   0   0   0   0   0   0   0   0   0   0   6   0   0   0   0   0   6   0   3 90 83 82 
  10   0   0   0   0   0   0   5   7   0   0   5   0   4   0   0   0   6   0   0   0   4   0   8   7   0   0   0   0   0   0   2 76 75 
   8   0   0   0   0   0   0   0   0   4   6   0   0   0   0   0   0   0   0   0   0   0   0   0   0   0   5   0   0   0   0   2 92 80 
   8   0   0   0   0   0   6   0   0   0   0   0   0   0   0   0   4   0   0   0   0   0   0   0   0   0   0   0   0   0   0   1 75 
   9   7   0   0   0   0   0   0   0   0   0   0   5   0   0   0   0   0   0   0   0   0   0   0   0   0   0   0   0   0   0   1 78 
   2   0   0   0   0   0   5   0   0   7   6   0   0   0   0   0   9   4   0   0   0   0   0   0   0   0   0   0   0   0   0   1 78 
  10   0   0   0   0   0   0   0   5   0   0   0   0   0   0   0   0   0   0   0   0   0   0   0   0   0   0   0   0   0   0   1 77 
   7   0   0   0  10   0   0   0   8   0   0   3   0   0   0   0   0   0   0   0   0   0   0   0  10   0   0   0   0   0   0   1 76 
   2   0   0   0   0   0   0   0   0   0   0   0   0   0   0   0   0   0   0   0   0   0   0   0   0   6   8   0   0   0   0   1 88 
   2   0   0   0   0   0   0   8   0   0   0   0   0   0   0   0   0   0   0   0   0   0   0   0   0   0   4   6   0   0   0   1 84 
   9   0   0   0   0   0   0   0   0   0   0   0   0   0   0   0   0   0   0   0   8   0   0   0   0   0   0   0   0   0   0   1 87 
   1   0   0   0   0   0   0   0   0   8   0   0   0   0   0   0   0   0   0   0   0   0   0   0   0   0   0   0   0   0   0   1 86 
   5   0   0   0   0   0   0   0   0   0   6   0   0   6   0   0   0   0   0   0   0   0   0   0   0   0   0   0   0   0   0   1 77 
   2   0   0   0   0   0   0   0   0   5   0   4   0   0   0   0   0   0   0   0   0   0   0   0   0   0   0   8   0   0   0   1 76 
   2   0   0   4   0   0   0   0   0   0   0   0   0   0   0   0   0   0   0   9   0   0   0   0   0   0   0   0   0   0   0   1 86 
   3   0   0   0   0  10   0   0   0   0   0   0   0   9   0   0   0   0   0   0   0   0   0   0   0   0   0   0  10   0   0   1 102
   7   0   0   0   0   0   0   0   0   4   0  10   6   0   0   0  10   8   0   0   0   0   0   0   0   0   0   0   0   0   0   1 102
   5   0  10   0   0   0   0   8   0   0   0   0   0   0   8   0   0   0   0   5   0   0   0   0   0   0   0   0   0   0   0   1 102
   5   0   0   0   0   0   0   0   0   0   0   0   8   0   0   0   0   0   0   0   0   0   0   0   0   0   0   0   0   0   0   1 102
   8   0   0   0   0   0   0   0   0   0   0   0   0   0   0   0   0   0   0   0   0   0   0   0   0   0   9   9   0   0   0   1 102
  10   0   0   0   0   4   0   0   0   0   0   7   0   0   0   9   0   0   0   0   0   0   0   7   0   0   0   8   0   8   0   1 102
   8   6   0   5   0   0   0   4   0   4   0   0   0   0   0   0   0   3   0   0   0   0   6   0   0   0   4   0   0   0   0   1 102
   4   0   0   0   0   0   0   0   0   0   0   0   0   4   0   0   0   4   0   0   0   0   0   0   0   0   0   0   0   0   0   1 102
   4   0   0   0   0   7   0   0   0   0   0   0   0   0   4   0   0   0   0   0   0   0   5   0   0   0   2   0   0   0   3   1 102
   8   0   0   0   0   0   0   0   0   0   0   8   0   0   0   0   0   0   0   6   0   9   0   0   0   0   0   0   0   0   0   1 102
   1   8   0   7   0   0   0   0   0   0   0   0   0   0   0   0   5   0   0   0   0   0   0   0   0   0   8   0  10   0   0   1 102
   6   5   0   0   0   0   0   0   4   0   0   0   0   0   0   0   0   0   0   0   0   0   0   0   0   0   0   0   0   0   0   1 102
   3  10   0   0   0   0   0   0   0   0   0   0   0   0   0   0   0   6   0   0   0   0   0   0   0   0   0   0   0   0   0   1 102
   9   0   0   0   0   0   0   0   0   0   0   0   0   0   5   0   0   0   0   0   0   0   0   0   0   0   0   0   0   0   0   1 102
   9   0   0   7   6   2   0   0   7   0   0   0   0   0   7   0   0   0   6   0   0   0   0   0   0   0   0   0   0   0   0   1 102
   2   0   0   6   0   0   5   7   0   0   0   0   0   0   0   0   0   0   0   0   0   0   0   0   0   0   0   5   2   0   0   1 102
   2   0   0   0   0   0   0   0   0   0   0   0   0   0   0   0  10   0   0   0   0   0   0   0   0   0   0   0   0   0   9   1 102
   3   0   0   0   0   0   0   0   5   0   3   0   0   0   0   0   0   0   0   9   0   6   0   0   0   0   0   0   5   4   0   1 102
   7   0   0   0   0   0   0   0   0   0   8   0   0   0   3   0   0   0   0   0   5   0   0   0   0   4   0   0   0   0  10   1 102
   9   6   0   0   0   0   0   0   0   0   0   0   0   0   0   0   0   5   0   6   0   4   0   0   0   0   0   0   0   0   0   1 102
   1   6   0   6   0   0   0   0   0   4   0   0   0   0   0   0   0   0   0   0   0   0   0   0   0   0   0   0   0   0   0   1 102
   4   0   0   0   0   0   0   0   8  10   0   0   0   0   8   0   0   0   0   0   0   0   0   0   0   0   0   0   0   0   0   1 102
   8   0   0   0   0   0   0   0   0   0   0   0   0   0   0   0   0   0   0   4   0   0   0   0   0   0   8   0   0   0   0   1 102
   2   0   0   0   0   0   0   0   0   6   0   0   0   0   0   0   0   0   0   0   0   0   8   0   0   0   0   0   0   6   0   1 102
   5   0   0   0   0   0   0   6   0   0   6  10   0   0   0   0   0   0   8   0   0   0   8   0   0   0   9   0   0   0   0   1 102
   4   0   0   0   0   0   0   6   0   0   9   0   8   6   0   0   0   0   0   0   0   7   0   0   0   0   0   0   0   0   0   1 102
   2   0   0   0   0   0   0   0   0   0   0   0   0   7   8   6   0   0   0   0   0   0   0   0   0   0   0   0   6   0   7   1 102
   0   0   0   0   0   0   0   0   0   0   0   0   0   0   0   0   0   0   0   0   0   0   0   0   0   0   0   0   0   0   0   0 
